# Termalização de um sistema com apenas água

# variáveis
variable    natoms  index 50
variable    overlap index 2.0
variable    maxtry  index 50
variable    temp    index 300
variable    lbox    index 20.0
variable    nsteps  index 10000

# Configurações gerais
units           real
atom_style      full
boundary        p p p

# Configurações do modelo
pair_style      lj/cut/coul/long  14 
pair_modify     mix arithmetic tail yes
kspace_style    ewald 0.0001
bond_style      harmonic
angle_style     harmonic

# Configurações da caixa (box)

region          box block 0 ${lbox} 0 ${lbox} 0 ${lbox} units box

create_box      2 box                       &
                bond/types 1                &
                angle/types 1               &
                extra/bond/per/atom 2       &
                extra/angle/per/atom 1      &
                extra/special/per/atom 2

# Modelo (template) da molécula da água
molecule        h2omol H2O.mol

# Cria as moléculas de água na box
create_atoms   	0 random ${natoms} 12345 box mol h2omol 12345 overlap ${overlap} maxtry ${maxtry} units box

# Modelo da água (H2O): SPC/E
pair_coeff      1 1 0.15535 3.166 # lj
pair_coeff      * 2 0.0000 0.0000 # lj      

bond_coeff      1     1000       1.0    # bond
angle_coeff     1      100       109.47 # angle 

# massas

mass 1 15.9994 # oxigênio
mass 2 1.0     # hidrogênio

# Configurações - MD

group           h2o type 1 2
neighbor        2.0 bin
neigh_modify    every 1 delay 1 check yes

velocity       	all create ${temp} 54654
timestep        1.0

thermo 100
thermo_style custom time temp press vol pe ke

# Minimiza a energia 
#dump dump.min all custom 100 dump.min.h20.lammpstrj id type  x y z
#minimize 0.0 0.0 100 1000
#reset_timestep 0
#undump dump.min

# Ensemble NVT

fix  NVT h2o nvt temp ${temp} ${temp} 100

dump dump.nvt all custom 100 dump.lammpstrj id type  x y z vx vy vz

run ${nsteps}

#undump dump.nvt

#write_data data.nvt.final

